NAME: cuum220.tsp
TYPE: TSP
COMMENT: User-generated TSP file
DIMENSION: 220
EDGE_WEIGHT_TYPE: EUC_2D
NODE_COORD_SECTION
1 178.0 198.0
2 106.0 9.0
3 44.0 201.0
4 44.0 178.0
5 215.0 15.0
6 145.0 165.0
7 58.0 46.0
8 184.0 98.0
9 63.0 94.0
10 119.0 144.0
11 208.0 151.0
12 70.0 94.0
13 90.0 85.0
14 104.0 15.0
15 160.0 91.0
16 187.0 114.0
17 147.0 198.0
18 190.0 209.0
19 105.0 194.0
20 29.0 180.0
21 170.0 170.0
22 14.0 2.0
23 45.0 159.0
24 103.0 126.0
25 219.0 128.0
26 33.0 64.0
27 23.0 12.0
28 39.0 219.0
29 7.0 169.0
30 39.0 208.0
31 114.0 134.0
32 2.0 165.0
33 103.0 68.0
34 101.0 164.0
35 103.0 115.0
36 60.0 102.0
37 72.0 36.0
38 215.0 190.0
39 174.0 31.0
40 1.0 200.0
41 17.0 206.0
42 117.0 143.0
43 93.0 150.0
44 31.0 197.0
45 164.0 216.0
46 4.0 198.0
47 75.0 207.0
48 208.0 118.0
49 151.0 85.0
50 149.0 167.0
51 95.0 140.0
52 77.0 9.0
53 64.0 103.0
54 101.0 42.0
55 205.0 31.0
56 200.0 210.0
57 69.0 180.0
58 10.0 149.0
59 96.0 172.0
60 17.0 180.0
61 69.0 154.0
62 156.0 170.0
63 161.0 33.0
64 213.0 170.0
65 16.0 80.0
66 135.0 57.0
67 202.0 9.0
68 81.0 30.0
69 193.0 172.0
70 115.0 123.0
71 4.0 78.0
72 161.0 93.0
73 45.0 126.0
74 149.0 26.0
75 204.0 209.0
76 152.0 154.0
77 218.0 17.0
78 81.0 138.0
79 73.0 135.0
80 131.0 152.0
81 44.0 174.0
82 12.0 166.0
83 202.0 18.0
84 194.0 164.0
85 149.0 108.0
86 86.0 6.0
87 42.0 98.0
88 173.0 157.0
89 1.0 214.0
90 1.0 145.0
91 36.0 207.0
92 7.0 198.0
93 2.0 45.0
94 154.0 177.0
95 127.0 154.0
96 186.0 208.0
97 197.0 134.0
98 4.0 158.0
99 141.0 136.0
100 44.0 186.0
101 177.0 80.0
102 215.0 93.0
103 117.0 23.0
104 37.0 199.0
105 75.0 113.0
106 16.0 41.0
107 110.0 47.0
108 58.0 108.0
109 146.0 160.0
110 159.0 56.0
111 172.0 183.0
112 168.0 25.0
113 166.0 155.0
114 140.0 172.0
115 121.0 30.0
116 111.0 155.0
117 103.0 80.0
118 5.0 135.0
119 69.0 84.0
120 112.0 56.0
121 5.0 138.0
122 46.0 89.0
123 20.0 89.0
124 38.0 130.0
125 214.0 95.0
126 180.0 194.0
127 152.0 109.0
128 108.0 63.0
129 114.0 2.0
130 72.0 72.0
131 213.0 82.0
132 217.0 7.0
133 183.0 193.0
134 191.0 163.0
135 216.0 122.0
136 119.0 153.0
137 192.0 217.0
138 213.0 114.0
139 75.0 106.0
140 5.0 2.0
141 4.0 109.0
142 8.0 57.0
143 100.0 215.0
144 202.0 100.0
145 19.0 30.0
146 23.0 6.0
147 26.0 79.0
148 145.0 203.0
149 20.0 9.0
150 180.0 90.0
151 89.0 198.0
152 4.0 171.0
153 210.0 53.0
154 194.0 63.0
155 86.0 54.0
156 105.0 22.0
157 204.0 91.0
158 181.0 45.0
159 83.0 204.0
160 184.0 37.0
161 96.0 207.0
162 70.0 102.0
163 215.0 178.0
164 137.0 218.0
165 72.0 43.0
166 70.0 59.0
167 32.0 31.0
168 107.0 104.0
169 16.0 129.0
170 94.0 119.0
171 119.0 88.0
172 23.0 169.0
173 154.0 22.0
174 168.0 10.0
175 150.0 199.0
176 172.0 170.0
177 155.0 159.0
178 105.0 173.0
179 11.0 135.0
180 52.0 8.0
181 193.0 77.0
182 146.0 204.0
183 170.0 163.0
184 172.0 9.0
185 103.0 138.0
186 172.0 62.0
187 116.0 43.0
188 154.0 45.0
189 204.0 91.0
190 13.0 158.0
191 82.0 96.0
192 37.0 80.0
193 88.0 17.0
194 151.0 59.0
195 208.0 81.0
196 170.0 32.0
197 18.0 160.0
198 109.0 192.0
199 50.0 82.0
200 96.0 42.0
201 193.0 191.0
202 137.0 20.0
203 205.0 17.0
204 32.0 84.0
205 157.0 104.0
206 182.0 170.0
207 76.0 177.0
208 82.0 4.0
209 20.0 114.0
210 130.0 165.0
211 211.0 183.0
212 119.0 9.0
213 175.0 72.0
214 157.0 162.0
215 80.0 75.0
216 24.0 127.0
217 173.0 200.0
218 206.0 73.0
219 39.0 70.0
220 81.0 211.0
EOF





